60

 0   1   2   3   1   2   3   4   2   3   4   5   3   4   5   6   4   5   6   7   5   6   7   8   6   7   8   9   7   8   9  10   8   9  10  11   9  10  11  12  10  11  12  13  11  12  13  14  12  13  14  15  13  14  15  16  14  15  16  17  
 1   0   1   2   2   1   2   3   3   2   3   4   4   3   4   5   5   4   5   6   6   5   6   7   7   6   7   8   8   7   8   9   9   8   9  10  10   9  10  11  11  10  11  12  12  11  12  13  13  12  13  14  14  13  14  15  15  14  15  16  
 2   1   0   1   3   2   1   2   4   3   2   3   5   4   3   4   6   5   4   5   7   6   5   6   8   7   6   7   9   8   7   8  10   9   8   9  11  10   9  10  12  11  10  11  13  12  11  12  14  13  12  13  15  14  13  14  16  15  14  15  
 3   2   1   0   4   3   2   1   5   4   3   2   6   5   4   3   7   6   5   4   8   7   6   5   9   8   7   6  10   9   8   7  11  10   9   8  12  11  10   9  13  12  11  10  14  13  12  11  15  14  13  12  16  15  14  13  17  16  15  14  
 1   2   3   4   0   1   2   3   1   2   3   4   2   3   4   5   3   4   5   6   4   5   6   7   5   6   7   8   6   7   8   9   7   8   9  10   8   9  10  11   9  10  11  12  10  11  12  13  11  12  13  14  12  13  14  15  13  14  15  16  
 2   1   2   3   1   0   1   2   2   1   2   3   3   2   3   4   4   3   4   5   5   4   5   6   6   5   6   7   7   6   7   8   8   7   8   9   9   8   9  10  10   9  10  11  11  10  11  12  12  11  12  13  13  12  13  14  14  13  14  15  
 3   2   1   2   2   1   0   1   3   2   1   2   4   3   2   3   5   4   3   4   6   5   4   5   7   6   5   6   8   7   6   7   9   8   7   8  10   9   8   9  11  10   9  10  12  11  10  11  13  12  11  12  14  13  12  13  15  14  13  14  
 4   3   2   1   3   2   1   0   4   3   2   1   5   4   3   2   6   5   4   3   7   6   5   4   8   7   6   5   9   8   7   6  10   9   8   7  11  10   9   8  12  11  10   9  13  12  11  10  14  13  12  11  15  14  13  12  16  15  14  13  
 2   3   4   5   1   2   3   4   0   1   2   3   1   2   3   4   2   3   4   5   3   4   5   6   4   5   6   7   5   6   7   8   6   7   8   9   7   8   9  10   8   9  10  11   9  10  11  12  10  11  12  13  11  12  13  14  12  13  14  15  
 3   2   3   4   2   1   2   3   1   0   1   2   2   1   2   3   3   2   3   4   4   3   4   5   5   4   5   6   6   5   6   7   7   6   7   8   8   7   8   9   9   8   9  10  10   9  10  11  11  10  11  12  12  11  12  13  13  12  13  14  
 4   3   2   3   3   2   1   2   2   1   0   1   3   2   1   2   4   3   2   3   5   4   3   4   6   5   4   5   7   6   5   6   8   7   6   7   9   8   7   8  10   9   8   9  11  10   9  10  12  11  10  11  13  12  11  12  14  13  12  13  
 5   4   3   2   4   3   2   1   3   2   1   0   4   3   2   1   5   4   3   2   6   5   4   3   7   6   5   4   8   7   6   5   9   8   7   6  10   9   8   7  11  10   9   8  12  11  10   9  13  12  11  10  14  13  12  11  15  14  13  12  
 3   4   5   6   2   3   4   5   1   2   3   4   0   1   2   3   1   2   3   4   2   3   4   5   3   4   5   6   4   5   6   7   5   6   7   8   6   7   8   9   7   8   9  10   8   9  10  11   9  10  11  12  10  11  12  13  11  12  13  14  
 4   3   4   5   3   2   3   4   2   1   2   3   1   0   1   2   2   1   2   3   3   2   3   4   4   3   4   5   5   4   5   6   6   5   6   7   7   6   7   8   8   7   8   9   9   8   9  10  10   9  10  11  11  10  11  12  12  11  12  13  
 5   4   3   4   4   3   2   3   3   2   1   2   2   1   0   1   3   2   1   2   4   3   2   3   5   4   3   4   6   5   4   5   7   6   5   6   8   7   6   7   9   8   7   8  10   9   8   9  11  10   9  10  12  11  10  11  13  12  11  12  
 6   5   4   3   5   4   3   2   4   3   2   1   3   2   1   0   4   3   2   1   5   4   3   2   6   5   4   3   7   6   5   4   8   7   6   5   9   8   7   6  10   9   8   7  11  10   9   8  12  11  10   9  13  12  11  10  14  13  12  11  
 4   5   6   7   3   4   5   6   2   3   4   5   1   2   3   4   0   1   2   3   1   2   3   4   2   3   4   5   3   4   5   6   4   5   6   7   5   6   7   8   6   7   8   9   7   8   9  10   8   9  10  11   9  10  11  12  10  11  12  13  
 5   4   5   6   4   3   4   5   3   2   3   4   2   1   2   3   1   0   1   2   2   1   2   3   3   2   3   4   4   3   4   5   5   4   5   6   6   5   6   7   7   6   7   8   8   7   8   9   9   8   9  10  10   9  10  11  11  10  11  12  
 6   5   4   5   5   4   3   4   4   3   2   3   3   2   1   2   2   1   0   1   3   2   1   2   4   3   2   3   5   4   3   4   6   5   4   5   7   6   5   6   8   7   6   7   9   8   7   8  10   9   8   9  11  10   9  10  12  11  10  11  
 7   6   5   4   6   5   4   3   5   4   3   2   4   3   2   1   3   2   1   0   4   3   2   1   5   4   3   2   6   5   4   3   7   6   5   4   8   7   6   5   9   8   7   6  10   9   8   7  11  10   9   8  12  11  10   9  13  12  11  10  
 5   6   7   8   4   5   6   7   3   4   5   6   2   3   4   5   1   2   3   4   0   1   2   3   1   2   3   4   2   3   4   5   3   4   5   6   4   5   6   7   5   6   7   8   6   7   8   9   7   8   9  10   8   9  10  11   9  10  11  12  
 6   5   6   7   5   4   5   6   4   3   4   5   3   2   3   4   2   1   2   3   1   0   1   2   2   1   2   3   3   2   3   4   4   3   4   5   5   4   5   6   6   5   6   7   7   6   7   8   8   7   8   9   9   8   9  10  10   9  10  11  
 7   6   5   6   6   5   4   5   5   4   3   4   4   3   2   3   3   2   1   2   2   1   0   1   3   2   1   2   4   3   2   3   5   4   3   4   6   5   4   5   7   6   5   6   8   7   6   7   9   8   7   8  10   9   8   9  11  10   9  10  
 8   7   6   5   7   6   5   4   6   5   4   3   5   4   3   2   4   3   2   1   3   2   1   0   4   3   2   1   5   4   3   2   6   5   4   3   7   6   5   4   8   7   6   5   9   8   7   6  10   9   8   7  11  10   9   8  12  11  10   9  
 6   7   8   9   5   6   7   8   4   5   6   7   3   4   5   6   2   3   4   5   1   2   3   4   0   1   2   3   1   2   3   4   2   3   4   5   3   4   5   6   4   5   6   7   5   6   7   8   6   7   8   9   7   8   9  10   8   9  10  11  
 7   6   7   8   6   5   6   7   5   4   5   6   4   3   4   5   3   2   3   4   2   1   2   3   1   0   1   2   2   1   2   3   3   2   3   4   4   3   4   5   5   4   5   6   6   5   6   7   7   6   7   8   8   7   8   9   9   8   9  10  
 8   7   6   7   7   6   5   6   6   5   4   5   5   4   3   4   4   3   2   3   3   2   1   2   2   1   0   1   3   2   1   2   4   3   2   3   5   4   3   4   6   5   4   5   7   6   5   6   8   7   6   7   9   8   7   8  10   9   8   9  
 9   8   7   6   8   7   6   5   7   6   5   4   6   5   4   3   5   4   3   2   4   3   2   1   3   2   1   0   4   3   2   1   5   4   3   2   6   5   4   3   7   6   5   4   8   7   6   5   9   8   7   6  10   9   8   7  11  10   9   8  
 7   8   9  10   6   7   8   9   5   6   7   8   4   5   6   7   3   4   5   6   2   3   4   5   1   2   3   4   0   1   2   3   1   2   3   4   2   3   4   5   3   4   5   6   4   5   6   7   5   6   7   8   6   7   8   9   7   8   9  10  
 8   7   8   9   7   6   7   8   6   5   6   7   5   4   5   6   4   3   4   5   3   2   3   4   2   1   2   3   1   0   1   2   2   1   2   3   3   2   3   4   4   3   4   5   5   4   5   6   6   5   6   7   7   6   7   8   8   7   8   9  
 9   8   7   8   8   7   6   7   7   6   5   6   6   5   4   5   5   4   3   4   4   3   2   3   3   2   1   2   2   1   0   1   3   2   1   2   4   3   2   3   5   4   3   4   6   5   4   5   7   6   5   6   8   7   6   7   9   8   7   8  
10   9   8   7   9   8   7   6   8   7   6   5   7   6   5   4   6   5   4   3   5   4   3   2   4   3   2   1   3   2   1   0   4   3   2   1   5   4   3   2   6   5   4   3   7   6   5   4   8   7   6   5   9   8   7   6  10   9   8   7  
 8   9  10  11   7   8   9  10   6   7   8   9   5   6   7   8   4   5   6   7   3   4   5   6   2   3   4   5   1   2   3   4   0   1   2   3   1   2   3   4   2   3   4   5   3   4   5   6   4   5   6   7   5   6   7   8   6   7   8   9  
 9   8   9  10   8   7   8   9   7   6   7   8   6   5   6   7   5   4   5   6   4   3   4   5   3   2   3   4   2   1   2   3   1   0   1   2   2   1   2   3   3   2   3   4   4   3   4   5   5   4   5   6   6   5   6   7   7   6   7   8  
10   9   8   9   9   8   7   8   8   7   6   7   7   6   5   6   6   5   4   5   5   4   3   4   4   3   2   3   3   2   1   2   2   1   0   1   3   2   1   2   4   3   2   3   5   4   3   4   6   5   4   5   7   6   5   6   8   7   6   7  
11  10   9   8  10   9   8   7   9   8   7   6   8   7   6   5   7   6   5   4   6   5   4   3   5   4   3   2   4   3   2   1   3   2   1   0   4   3   2   1   5   4   3   2   6   5   4   3   7   6   5   4   8   7   6   5   9   8   7   6  
 9  10  11  12   8   9  10  11   7   8   9  10   6   7   8   9   5   6   7   8   4   5   6   7   3   4   5   6   2   3   4   5   1   2   3   4   0   1   2   3   1   2   3   4   2   3   4   5   3   4   5   6   4   5   6   7   5   6   7   8  
10   9  10  11   9   8   9  10   8   7   8   9   7   6   7   8   6   5   6   7   5   4   5   6   4   3   4   5   3   2   3   4   2   1   2   3   1   0   1   2   2   1   2   3   3   2   3   4   4   3   4   5   5   4   5   6   6   5   6   7  
11  10   9  10  10   9   8   9   9   8   7   8   8   7   6   7   7   6   5   6   6   5   4   5   5   4   3   4   4   3   2   3   3   2   1   2   2   1   0   1   3   2   1   2   4   3   2   3   5   4   3   4   6   5   4   5   7   6   5   6  
12  11  10   9  11  10   9   8  10   9   8   7   9   8   7   6   8   7   6   5   7   6   5   4   6   5   4   3   5   4   3   2   4   3   2   1   3   2   1   0   4   3   2   1   5   4   3   2   6   5   4   3   7   6   5   4   8   7   6   5  
10  11  12  13   9  10  11  12   8   9  10  11   7   8   9  10   6   7   8   9   5   6   7   8   4   5   6   7   3   4   5   6   2   3   4   5   1   2   3   4   0   1   2   3   1   2   3   4   2   3   4   5   3   4   5   6   4   5   6   7  
11  10  11  12  10   9  10  11   9   8   9  10   8   7   8   9   7   6   7   8   6   5   6   7   5   4   5   6   4   3   4   5   3   2   3   4   2   1   2   3   1   0   1   2   2   1   2   3   3   2   3   4   4   3   4   5   5   4   5   6  
12  11  10  11  11  10   9  10  10   9   8   9   9   8   7   8   8   7   6   7   7   6   5   6   6   5   4   5   5   4   3   4   4   3   2   3   3   2   1   2   2   1   0   1   3   2   1   2   4   3   2   3   5   4   3   4   6   5   4   5  
13  12  11  10  12  11  10   9  11  10   9   8  10   9   8   7   9   8   7   6   8   7   6   5   7   6   5   4   6   5   4   3   5   4   3   2   4   3   2   1   3   2   1   0   4   3   2   1   5   4   3   2   6   5   4   3   7   6   5   4  
11  12  13  14  10  11  12  13   9  10  11  12   8   9  10  11   7   8   9  10   6   7   8   9   5   6   7   8   4   5   6   7   3   4   5   6   2   3   4   5   1   2   3   4   0   1   2   3   1   2   3   4   2   3   4   5   3   4   5   6  
12  11  12  13  11  10  11  12  10   9  10  11   9   8   9  10   8   7   8   9   7   6   7   8   6   5   6   7   5   4   5   6   4   3   4   5   3   2   3   4   2   1   2   3   1   0   1   2   2   1   2   3   3   2   3   4   4   3   4   5  
13  12  11  12  12  11  10  11  11  10   9  10  10   9   8   9   9   8   7   8   8   7   6   7   7   6   5   6   6   5   4   5   5   4   3   4   4   3   2   3   3   2   1   2   2   1   0   1   3   2   1   2   4   3   2   3   5   4   3   4  
14  13  12  11  13  12  11  10  12  11  10   9  11  10   9   8  10   9   8   7   9   8   7   6   8   7   6   5   7   6   5   4   6   5   4   3   5   4   3   2   4   3   2   1   3   2   1   0   4   3   2   1   5   4   3   2   6   5   4   3  
12  13  14  15  11  12  13  14  10  11  12  13   9  10  11  12   8   9  10  11   7   8   9  10   6   7   8   9   5   6   7   8   4   5   6   7   3   4   5   6   2   3   4   5   1   2   3   4   0   1   2   3   1   2   3   4   2   3   4   5  
13  12  13  14  12  11  12  13  11  10  11  12  10   9  10  11   9   8   9  10   8   7   8   9   7   6   7   8   6   5   6   7   5   4   5   6   4   3   4   5   3   2   3   4   2   1   2   3   1   0   1   2   2   1   2   3   3   2   3   4  
14  13  12  13  13  12  11  12  12  11  10  11  11  10   9  10  10   9   8   9   9   8   7   8   8   7   6   7   7   6   5   6   6   5   4   5   5   4   3   4   4   3   2   3   3   2   1   2   2   1   0   1   3   2   1   2   4   3   2   3  
15  14  13  12  14  13  12  11  13  12  11  10  12  11  10   9  11  10   9   8  10   9   8   7   9   8   7   6   8   7   6   5   7   6   5   4   6   5   4   3   5   4   3   2   4   3   2   1   3   2   1   0   4   3   2   1   5   4   3   2  
13  14  15  16  12  13  14  15  11  12  13  14  10  11  12  13   9  10  11  12   8   9  10  11   7   8   9  10   6   7   8   9   5   6   7   8   4   5   6   7   3   4   5   6   2   3   4   5   1   2   3   4   0   1   2   3   1   2   3   4  
14  13  14  15  13  12  13  14  12  11  12  13  11  10  11  12  10   9  10  11   9   8   9  10   8   7   8   9   7   6   7   8   6   5   6   7   5   4   5   6   4   3   4   5   3   2   3   4   2   1   2   3   1   0   1   2   2   1   2   3  
15  14  13  14  14  13  12  13  13  12  11  12  12  11  10  11  11  10   9  10  10   9   8   9   9   8   7   8   8   7   6   7   7   6   5   6   6   5   4   5   5   4   3   4   4   3   2   3   3   2   1   2   2   1   0   1   3   2   1   2  
16  15  14  13  15  14  13  12  14  13  12  11  13  12  11  10  12  11  10   9  11  10   9   8  10   9   8   7   9   8   7   6   8   7   6   5   7   6   5   4   6   5   4   3   5   4   3   2   4   3   2   1   3   2   1   0   4   3   2   1  
14  15  16  17  13  14  15  16  12  13  14  15  11  12  13  14  10  11  12  13   9  10  11  12   8   9  10  11   7   8   9  10   6   7   8   9   5   6   7   8   4   5   6   7   3   4   5   6   2   3   4   5   1   2   3   4   0   1   2   3  
15  14  15  16  14  13  14  15  13  12  13  14  12  11  12  13  11  10  11  12  10   9  10  11   9   8   9  10   8   7   8   9   7   6   7   8   6   5   6   7   5   4   5   6   4   3   4   5   3   2   3   4   2   1   2   3   1   0   1   2  
16  15  14  15  15  14  13  14  14  13  12  13  13  12  11  12  12  11  10  11  11  10   9  10  10   9   8   9   9   8   7   8   8   7   6   7   7   6   5   6   6   5   4   5   5   4   3   4   4   3   2   3   3   2   1   2   2   1   0   1  
17  16  15  14  16  15  14  13  15  14  13  12  14  13  12  11  13  12  11  10  12  11  10   9  11  10   9   8  10   9   8   7   9   8   7   6   8   7   6   5   7   6   5   4   6   5   4   3   5   4   3   2   4   3   2   1   3   2   1   0  

 0   0   1   1   0   1   0   7   1   0   0  91   1   1  69   9   1   1   1   2   0   1   0  21   5   8  38  23  17   1  21   2  30   0   1  28   1   1  64  94   5   1   1   1  45  75   0   0  12   0  55   1  17   0   1  75   0   0   0   0  
 0   0  29  14  38   1   1  12   1   1   0   0  21   0   1  45   5   0   0   0   1   3   4   0  83   1  29  26  51  65   0   1  24   0   2   0  33  86  36   0  35  69  23  71   1   1   0  35   2   0  87   1   1   2  69  13   0   1   1   1  
44  41   0   0   0   1   1   1  78  16   3   5   3  69   1  11   0  19  68   6   0  32   0   1  45  70   1   8  88   0   1  31  25   4  32   1   1   2   0   1   0   0   0   1  75   1   0   0  16  19  84   1   4  14  44   1   1   0   1   0  
 1  38   3   0   0   0   0   0   0   0   1  24   0   0   1  81  56  60   1   0   2   0  45  28   0   0   0   0   8   1  81   0   1  42  48   1   0  52   9   1   0   1   1  46   1   1   3   0   1   0   1  35  83   4   1   0  24  28   1  20  
 0   1  29  36   0   7   0   0   0  24   3   1   0  32   1   0   4  61  68  32   0  26   1   0  28   1   1   7   5   1   1  73  25   9   1  13   0  13   4  34   1  83   1   1   5   1   1   3   1   0  71   0  73  25   1   1   0   3   3  51  
11   0   0   1   0   0   1   2   0   1  48  46  80   0   1  62   1   0   0   0   0   1   0  21   0   0  74   1  40   1  73   9   8  43   1  60   0   3   1   8   5   1   0   0   0   8   9  11   0   8  22   1  16  41   1  92  34  16  11   8  
54   2   0  12   0   4   0   5   0  13   1  26   8   1   0   0  15  17  16   0   0  13   1   6   1  73   5   0   8   0  15  30   0   0  79   0  45  92   6  71  14   2  23   0   0   1   1   2   0   1  23   1   0   7   1   0  27  12   1   0  
 1   1   0   3   1   0   1   0  96   1  22  40   0   1   0   0   0   0   1   1   1  81   0   1  50   0  62   0   1   3  51  85   1   0   4  99   0  44   0   0  19   1   0   1   0   6   0  29  37   0  14  49   0  96  44  29   1   1   0  49  
66  29  59   1   0   0   0   0   0  21   2   1   1   0  20  31   1   2  44  92   0   1  45   0  93  53   2   0   1  59  16   4  57  31  77   1   0   0   1   1   0  67  87   1   0   0  49  39   1  10   1   0   0   0  71   6   1   4   0   9  
57  97   5   1   0   1   1  20  47   0   0   0   1  26   1   1   2   0  10   0   9   4  36   3   2  10   3   1   0   1  19  56   1   1   0  73   0   0  24  17  23   1  84  22  26  25   9   0   7   1  77  61   1   5   0   1  55   6   1   0  
 1   0   1   3  10   1  33  50   1  22   0   1   2  99  66   0  65   0   3   0   0   7   1   2   0   1   1  21   1   0   0  36   3   1  82   0  14   1  23  57  10   2   0   0  84   1  37   1   0   3  45  12  17   0   0   1   1   0  84  87  
 4   1   0   1  15   0   1  11  62   1  18   0  32   0   2  17   1   0  95  28  86  27  22   1   1   1   1   7  62   1  88   1   0   1  47  97   1  18   4  37  79  17   1   0   0   1   0   7   0   1   0   7   1  18  74   0   0   5   0   0  
 1  57   0  34  22   1  36  41   1   1   4  33   0   0  35  90   0   0   1   0   1   0   1  31  59   4  21  14  30   0   0  24   0  19   0  78   1   1  53  17   1   1   0   1   3   1   2   1   1   4   8   0  22   1   1   8   1  36  32   2  
 1   1   0   0   8  20   0   0  38   1   7  32   8   0   0   1   8   8  52   6  68  37   1   8   1   0   0  24   0   1   4   2   0   1  16   1   0   3  80  11   5  11   0   0   0  33   0   2  31  85   0   0   0   6   2   0   0  49   1  12  
 0   0  41   2  44  32   0   0  57   1   0  57  66  57   0   1   1  16  12   0   1   0  70   1  54  12  30   0   1  26   0   1  10   2  47  72   0   1  13   3   0  68  74   5   1   9   1  12  89  22  32   1  31   0  25   1  31   1   5   1  
 1   0   0   1   1   1  66   0   0   0  75   6   0  13   1   0   1  77  13   2   1  21  12   1   0   0   0   1  99   1   1   0   1  22  31   0   0   8   1  30  84  15  58   0   0   0   1  25   0   1  14  54  28   3  76   1   3   1   8  51  
 1  10   0  48   0   0  18   1   1   0   1   1   1   0   1   1   0   6  76  10   3   1   0  75  59  11   1  68   0  86   1  19  90   2   1   2   0   1   1  74   1   1   1   0   2   1   0   1   1  49   1   3  59  42   1   0   0   1   0   8  
 3   1   0   0   0   1   0   0   1   0   1   0   2  72   3   0   1   0   9  63   0   1  82   0   9   0  80   1   0   0   0   0  51  17   1   1  40   0   6   1   1  83   1   7  75   1   3   1   1   9   0   1   1  90  56   0   1  19   4   0  
 1   0   0  15   1   3   0   1   1   0   3   0   1   1  28   1   1   0   0  66   0  11  36   0   3   0   1   8   1   0  15   1   1  48   1  39   0   0  37   1   1   1   1  77  21   5   1   1   0   1   1   0  33   0  73  10  30   0   0   1  
 0   0   1   0   0  11   0   0  12   1  84   0   1   1  73  88   1   1   0   0  30   1   1   0  82  70   1   0   1   0  52   0   3   1   0   0   0   1   1  18  20   1   1   1   1  78   0   0  60   1   1   1   1   4   0   0   0  29   1  74  
23   0   0   0   6  20  53  60   0   8   0   0  19  25   0   0   1   4   0   1   0   0   1  99   0   1   2   0   1   5  32  69   1   2  26   0   0   1   0   1   1   0   1  16   1  22   1  30   1  95   0   1   1   0   3  51   4   0  21   1  
 3   1   0   1  41   7   1  59   0   1  16   1   0   1  21   1  64   1   0  70   0   0   1  12  14   0  58   0  81   1   0   1   6  47   5   0   1   3   1   0   0   4  10  22   0   1  24  25   1  12   1  35   0   0   1  40   1   0  15   1  
 0   1   0   2  62   1   2   8   0   0   1   0   0   1   1   2   0   0  51  79  68   1   0  30   6   0  67   1   1   8  60   1   1   1  49  65  18  24   3  10  31   0  87   9   1  88   1   4   1  11   0   6   1   7   1  58   9   4   1  94  
 1   1   0  40  84   1   0   1   1  91   0   1   1   1   0  18  63  18   3   0   4   1  69   0   0   0   2   1  49   8   0  17   1  10   1  28   1   7   1   1   1  12  75  90   1   9   1  46  29   1   0   1  19  15   1  18   3   1   1   8  
 1   0  21   0   1   1   1   1   1  10   0   0   5   0   3   2  12  68   5  50  36   0   1  57   0   0  70  39   0   4   1   1   1   0  81  88   0   1   9   1   0   1  75  36  79   0   0  16  71   1   4  79   1   0  26  47   2   6   2   1  
 3   0   2   1   3  47   0   1  69   0   0   0   1   1  35  45   7   0  42  94   0   0  47   3   0   0   1   1   0  40   0   1  97   0  16   0   9   0   1  23   1   1   0   2  66  19   0   3   1   0   1   1  46   1   1  22  31  34   1   0  
80  11   0   0  19  10   5   2   0   0   1   1  23   1   1  62  37   0  55   0   0   0  59  95   1  10   0   0   1   6  21  66   0  75   1   0  93   5  14  26   6   1  24   1   1   0   0   8   9  56   6  19   1   0   1   1   0   7   0   0  
35   0  13   9  23   5   1  35   0   0   0  56  10   1   0   1   0   1   1   1  86   1   4   0   1   6   2   0  20   2   1  59  77   0  12  65  82   6  88   0   0   2   0   0   0   0   0   1   1   1  92  69   3  19   4  95   0  56  79   0  
 0  61  17   6   0   1   0   0   0  23   0   0  57   0   3  74  51   1   1   1   0   1  23   9   5   0  10  42   0   1   0  17   3  55  14  20   1   3   2  59   0  12   1  25  30  14  44   0  17  28  61   5  28   1  20  24   1   1   7   1  
 0  26  62   0   0   4   1   3   0  84   1   1   4  17   1   0   1   1  18   1  46   0   0  50  73   1  11   1  97   0   1   1   0  33   1   0   0   1  59  11   6  20  40   1   7   0   0  35   1  20   0   0   1   1   0  78  35  15   0  12  
 1   0   1   1   1  26  65   1  56   1   1   0   0   1  74  11   0   4   1   1  10   1  42   1  36   0   6  69   0   1   0   1  10   1   1   0   1  25   1   1   0   3   0   1  84   0  42  49  41  12   1   1   0  88   1  16  83  36   1   3  
 2  23   1   8  12   1   0   5  22   0   0   0   3  49   2   6   0   5  16   0  60   7  20  33  10   0   0   0   0   0   0   0   0   0   0   0  15  19   0   1   1  97   1  23  31   0   2  21   0   0   0  11   1  78   1  38   1   1   1   1  
 2   1   0   0  35   2   1  10  57  17   1  19  82   1  15  22  29   3   0   6   1   0  88  18   0   1   1   0   6  60   6  35   0   0   0  89   1  34  95   1   1   1   0   0  47   0  83   0   1   1   0   1   0  41   1   1   1   1  31   0  
 1  18   1  10  13  14   1  36   0  20   1   0  63   0  14   1  83   1  69  17  10  17  89   0   1   1   0  20   1   1   1   1  11   0   1  12  46   0  25   1   0   1   0   0  12   7  96   1  45   4  64   0  20  79  75   0   1   0   0   4  
 0   1  79  79  59   9   1   0   0  93   1   0  85   1   1   1   1   1   1  82   0   0  12   0   7   1  14  16  28   0  31   1   1  11   0   4   1   1   1  36   1   0  80   1   7   0   0   0  51   2  21  11  18  66  60   0   1   1  17  74  
44   0  51   3   0   1   1  38   7   1   4   1  21   1   0  23  18   0  70   1  25   8  38   1   4  11   0  10   1  46   1   1  21  51  18   0   0   5  24   1   1   2   0   0  87  56  72   9  81   1   0   0  32   0  27  78  20   1  21  13  
 0  30  75  71   4   1   1   0   0  81   0   1  45   0   0   1   1   1   1   1   1   4  19  20  57   1   3   1  28   0  23  12   8   2   1   0   0   0   1  12  17  22   0   0   1   1   1   6  91  13   0   0   0   0   1   1   2   0   1   0  
 0   0   1   1   0   1  43   1   0   9   1   4   2   8  73   1   0   4   1  25  13   2   1   0   1  20   1   1  41   0   1  16  22   0   1   1  12   0   1  74  59   7  79   0   0   0   2   0   1   5   1   1   2   1   1   1   1   0   1   1  
28   1  18  73  25  27   1   6   4   1   1  13  16   1   2  50   3   0  15   0   1   0  42   1  86   0  13   1   1   0   2  62   0  15   0   6   3   8   0   4   1   1   0   1   0   0  76   0   1   1   1  39   0  85   0  98   1   1   1   4  
 1   0   0   3   0   1   0   1  75  18   2   2   1   0   1  10   0   0   0   1   0  10   1   6  87   0   5   0   1   9   0  55  43  17   0   5   0   1   0   0  55   0   2  13  16   0   1   3  19   4   1  68   0   1  17   0  25  17   1  73  
 6   1   0   1   0   0   0   1   0   1   1   1   0   7   2   1   7   1   9   6   1   0   0   0   0   3  18   0   2   0   0   1   0   1   1   0   1   0   1  21   0  24   0   0  55   0  43   1  59  14   0   1   0  77  30   1   2  22  30  73  
 0  16   7   0  59   1   9   0  99  52   0  27  28   1   1  22   9  16   1  53   0   5   0   1  94  66   0   0  55  34   0   1  94   2  24   1   1   0   0   3   1   0   2  13   4  46   0  11   5  45   1  10   3   1   0   1  24   0   0   0  
 0  13  59  39  52   1   0   0  20   1  83   0   0   6   0   5   1   0   1   1   0  11  10  28   1  10  25   9   1   1   0   0   0  28  73   0  25   1  21  96   1   1   0   0  86   1  53  30   0   0  31  13   1   0   0  22  84   1   1  78  
38   1   0   1   0   1  13   0   0   0  14  19   1   0   0   1   4   2   1  78   0   1  11   1  15   0   0   1   0  35  81   1   1   1  18   0  23  19  54  36   0  29   3   0   0   0   1   1   1   0  51  90  35   1   0  17   6   8   0  18  
 0  38   1  16   0  84   0   0  12   0  12   0   0   5  29   1  35   9  48   4   0   0   0  14  23   0  28   1   1   8   0   0  48  19  16   0   1   1   1   3   7   3   0  37   0   0   0  17   0   1   9  17   0   0   5   0   0   1   0   0  
 3  33   0   0   0   1   1   0  13   1   0   1  67   0   0  18   0   0   2   0   1   2   0  71   3   1   1   8   0   0  14   1   0  11   6   0  18  45   1  74   3  13   0  10  40   0  44   1   0   1   0   0   1   0   1  43  85  10  30   1  
 1   1   1  10   1  91   1  69   1  70  11   0   0   0  23   0   1  81   0  61   1  35   1  33   0  88   1   0   1   0   0   2  58   7   0   0   0  29   3   1   0  57  35   1   1   1   0   0   1   1   0   0   0   1   1   3   1   0  19   0  
 0  20  54   0  29  10   8   0  24  29   1  92   0   1  90  12   0   1   0   0  18  10  18   1   1   1   5  33   3   9   1   0   0   0   0  21   2   1  18  47  24   1  97   1   1   7   1   0   0   0   0  13   0   1  36   1   0   0   1   0  
 1   0  92   0   9   0   9   0   1   3   1  11   5   0  72   1  48   1   4  39   1   0   1   5   1   0   1  91   7   7   0   1   0  14   1   1  90   0   0   1   1   0  13   0   1   1  10   0   0   6   1   1  10   0   1  38   0   1   0   1  
 0   0   0   0   1   1   0   1   4  92   1   9  13  37  21  52  78   0   0   1   1   1   3   1  22   0   0   2   0  31   0   0   1   2  22   1   0   1   2   0   1   0   1   0  11   6  28   0   0   0  25   0  96  21   0   1  97   0  16  80  
 1  44  34   0   1   1   0   0  65   8   1   5  43  29   0   1  19   1   8   0  99   1  20   1   0   1  38   9  13   1   0   1   1   1   0   0   1   5  50   0   0   0  13   1   1   1  11   1   0   0   0   1   5  87   1   2   2  50  66   0  
 0  18   0   2   1   1  17   1   1   1   0  36   1   1   0  18   1   1   0   0  34  80  16   1   0   1   0  25   0   1   0  16  40   0  42   6  12   1   0  32   0   1  10   4  77   9   1   0   1   1  50   0   0  37  60   6  52   1   7   7  
 8   0   1   0   1   0   1   1   0   1   1   1   4   8  54   0   1   0   1  71   0  75   1  37   1   1  19  11   0   0   1   1  68  22   3   1   1  17   1   1   1  11   0   1   2   3   1   0   1   2  91   1   0  13  66   1   6  10  29  56  
34  51   1  22  22   1   1   0   1   1  46  10   1  70   0   2   0  12  57  17   1  47   1   0   1   7   1   0   1  57   6  26  42   5   0   0   1  23   7   0   0  48  32   1  63   4   0   0  32  22   2   1   0   0   0   3   0  92   3   0  
 0   2   1  21   1   1  21   1   0   1  35   8   1   0   2  70   1   1  29   4   0  20  41  51   0  61  25   1  10  13  52   1  87   1   3  36   3   7   0  12   0   0   0   1   6   1   1   4   1  26  36   0   0   0   0  79  71   1   3   5  
32   0   1   1   1   1  40   0   1   0   1   0   0   1  43   1   0   1  45   0   1  30   0   2  36  10   1   0   1   0   0   0   4   1  41   2  95  16   1  15  16  16   0  81  42   0   1   0  23  10   1  93   1   1  52   0   5   1   1  36  
 1   0   0   2  11   0  91  19   1  39   0   2  84   2  99  99  42   1   8  38   6   0   0   4   1  14   0   1  16   0  36   4   2  44   0  80  59  14  71   1   1   1   1   1  43   1   0   1   0   1  59   1   1   1  63   1   0   1   7  10  
 1   1  28  42  40   1  25   1   5   1  23   0  20   1   1   2   2  95   1  11   0  82   0   1   1   1   1   1   1   0  19   0   1   6  31   0  14  20   1   1  96   0   1   0   0   0  28  49   1  11   0   1   0   2   0  23  53   0   1   6  
 0   0   1   4  11  65   0   0   0   0   1   0   5   0   1   0   1   2   1   1  78   0   0   1   0   0   1   0   0   0  27   1   5  23   0   3  41   0   0  40   1   0  41  25  16   1   0   0   1  46   0  28   0  57   0   1  94   0   0   8  
27  36   1   1   0   0  17   0  46   0   1  16  29   2   0   1   0   0   0   0   0   1   1   0   1  51   0   1  78   1   8   1   1   9  22   1  11   0   8   1  50   0   1  27   1   1   1  75   2  81  11   0   1  17   1   1  54   0  89   0  
